c Generated map
c Size: 10 * 10, weights in range: 1 to 10, walls: True, with ratio 0.05
c dim 6 of 6
c
p sp 100 164
c graph contains 100 nodes and 164 arcs
c
a 1 2 5
a 2 1 5
a 2 12 1
a 12 2 1
a 2 3 9
a 3 2 9
a 3 13 2
a 13 3 2
a 3 4 10
a 4 3 10
a 4 14 5
a 14 4 5
a 4 5 3
a 5 4 3
a 5 6 3
a 6 5 3
a 6 16 3
a 16 6 3
a 6 7 5
a 7 6 5
a 7 17 10
a 17 7 10
a 7 8 8
a 8 7 8
a 8 18 3
a 18 8 3
a 8 9 4
a 9 8 4
a 9 19 1
a 19 9 1
a 9 10 5
a 10 9 5
a 10 20 10
a 20 10 10
a 12 22 6
a 22 12 6
a 12 13 9
a 13 12 9
a 13 23 1
a 23 13 1
a 13 14 7
a 14 13 7
a 14 24 7
a 24 14 7
a 16 26 7
a 26 16 7
a 16 17 10
a 17 16 10
a 17 27 7
a 27 17 7
a 17 18 2
a 18 17 2
a 18 28 6
a 28 18 6
a 18 19 9
a 19 18 9
a 19 29 10
a 29 19 10
a 19 20 3
a 20 19 3
a 20 30 9
a 30 20 9
a 21 31 3
a 31 21 3
a 21 22 4
a 22 21 4
a 22 32 6
a 32 22 6
a 22 23 4
a 23 22 4
a 23 24 10
a 24 23 10
a 24 34 10
a 34 24 10
a 24 25 9
a 25 24 9
a 25 35 2
a 35 25 2
a 25 26 4
a 26 25 4
a 26 36 8
a 36 26 8
a 26 27 4
a 27 26 4
a 27 37 1
a 37 27 1
a 27 28 4
a 28 27 4
a 28 38 8
a 38 28 8
a 28 29 10
a 29 28 10
a 29 39 3
a 39 29 3
a 29 30 6
a 30 29 6
a 30 40 10
a 40 30 10
a 31 41 5
a 41 31 5
a 31 32 4
a 32 31 4
a 32 42 5
a 42 32 5
a 34 44 1
a 44 34 1
a 34 35 6
a 35 34 6
a 35 45 3
a 45 35 3
a 35 36 9
a 36 35 9
a 36 46 9
a 46 36 9
a 36 37 6
a 37 36 6
a 37 47 1
a 47 37 1
a 37 38 8
a 38 37 8
a 38 48 10
a 48 38 10
a 38 39 10
a 39 38 10
a 39 49 8
a 49 39 8
a 39 40 8
a 40 39 8
a 40 50 9
a 50 40 9
a 41 51 6
a 51 41 6
a 41 42 2
a 42 41 2
a 42 52 1
a 52 42 1
a 42 43 3
a 43 42 3
a 43 53 6
a 53 43 6
a 43 44 7
a 44 43 7
a 44 54 2
a 54 44 2
a 44 45 7
a 45 44 7
a 45 55 7
a 55 45 7
a 45 46 1
a 46 45 1
a 46 56 8
a 56 46 8
a 46 47 7
a 47 46 7
a 47 57 1
a 57 47 1
a 47 48 7
a 48 47 7
a 48 58 6
a 58 48 6
a 48 49 10
a 49 48 10
a 49 59 9
a 59 49 9
a 49 50 9
a 50 49 9
a 50 60 4
a 60 50 4
a 51 61 6
a 61 51 6
a 51 52 5
a 52 51 5
a 52 62 8
a 62 52 8
a 52 53 6
a 53 52 6
a 53 63 7
a 63 53 7
a 53 54 4
a 54 53 4
a 54 64 4
a 64 54 4
a 54 55 1
a 55 54 1
a 55 65 2
a 65 55 2
a 55 56 2
a 56 55 2
a 56 66 3
a 66 56 3
a 56 57 9
a 57 56 9
a 57 67 4
a 67 57 4
a 57 58 2
a 58 57 2
a 58 68 7
a 68 58 7
a 58 59 3
a 59 58 3
a 59 69 5
a 69 59 5
a 59 60 7
a 60 59 7
a 60 70 5
a 70 60 5
a 61 71 9
a 71 61 9
a 61 62 2
a 62 61 2
a 62 72 8
a 72 62 8
a 62 63 2
a 63 62 2
a 63 73 3
a 73 63 3
a 63 64 2
a 64 63 2
a 64 74 7
a 74 64 7
a 64 65 1
a 65 64 1
a 65 75 2
a 75 65 2
a 65 66 3
a 66 65 3
a 66 76 9
a 76 66 9
a 66 67 9
a 67 66 9
a 67 77 9
a 77 67 9
a 67 68 6
a 68 67 6
a 68 78 8
a 78 68 8
a 68 69 6
a 69 68 6
a 69 79 8
a 79 69 8
a 69 70 8
a 70 69 8
a 71 81 9
a 81 71 9
a 71 72 10
a 72 71 10
a 72 82 10
a 82 72 10
a 72 73 1
a 73 72 1
a 73 83 8
a 83 73 8
a 73 74 9
a 74 73 9
a 74 84 1
a 84 74 1
a 74 75 4
a 75 74 4
a 75 85 2
a 85 75 2
a 75 76 4
a 76 75 4
a 76 86 8
a 86 76 8
a 76 77 7
a 77 76 7
a 77 87 1
a 87 77 1
a 77 78 2
a 78 77 2
a 78 88 4
a 88 78 4
a 78 79 5
a 79 78 5
a 79 89 2
a 89 79 2
a 81 91 1
a 91 81 1
a 81 82 7
a 82 81 7
a 82 92 9
a 92 82 9
a 82 83 9
a 83 82 9
a 83 93 2
a 93 83 2
a 83 84 10
a 84 83 10
a 84 94 1
a 94 84 1
a 84 85 8
a 85 84 8
a 85 95 2
a 95 85 2
a 85 86 4
a 86 85 4
a 86 96 2
a 96 86 2
a 86 87 9
a 87 86 9
a 87 97 1
a 97 87 1
a 87 88 8
a 88 87 8
a 88 98 8
a 98 88 8
a 88 89 4
a 89 88 4
a 89 99 8
a 99 89 8
a 91 92 2
a 92 91 2
a 92 93 4
a 93 92 4
a 93 94 7
a 94 93 7
a 94 95 7
a 95 94 7
a 95 96 9
a 96 95 9
a 96 97 4
a 97 96 4
a 97 98 8
a 98 97 8
a 98 99 3
a 99 98 3
a 99 100 3
a 100 99 3
